NAME : XML100_3152_25
DIMENSION : 101
NB_CLUSTERS : 23
CLUSTERING_ALG : KMeans
CLUSTERING_PARAMS : k(22)
CLUSTERS
1 0
2 56 70 81 85
3 3 30 38 53 93
4 11 24 36 61 92
5 21 31 44 52 55
6 8 82
7 25 40 57 68
8 4 29 58 69 88
9 7 18 23 28 34 49 60 79 90
10 1 20 22 26
11 35 37 51 75 80 83 99
12 14 43 65 97
13 5 19 59 71
14 2 10 17 39 48 67 73 96
15 27 64 86 91 94
16 62 76 78
17 13 46 47 54 98
18 15 77 84 89
19 9 16 32 42
20 41 72 87
21 6 33 66 74
22 12 63 95 100
23 45 50
EOF